artifact/ReVEAL/exp2_solver1/compress2rs/compress2rs_64_result_cec/64_64_U1_DT_JCA_Multgen_compress2rs.txt
ABC command line: "&cec /data/artifact/AMulet2.0_artifact/64_compress2rs/64_64_U1_DT_JCA_Multgen_compress2rs.aig /data/artifact/AMulet2.0_artifact/64_default/64_64_U1_DT_RC_Multgen_default.aig".

Networks are equivalent.  Time =     4.68 sec
